NAME: ch6
TYPE: TSP
COMMENT: "two-unit lenght hexagon"
DIMENSION: 6
EDGE_WEIGHT_TYPE: GEO
EDGE_WEIGHT_FORMAT: FUNCTION
DISPLAY_DATA_TYPE: COORD_DISPLAY
NODE_COORD_SECTION
1 1.0 -3.732050807568877
2 2.0 -2.0
3 0.0 0.0
4 1.0 1.732050807568877
5 2.0 0.0
6 0.0 -2.0

